(set-logic QF_S)
(declare-fun V15 () String )
(declare-fun V23 () String )
(declare-fun V8 () String )
(declare-fun V12 () String )
(declare-fun V26 () String )
(declare-fun V5 () String )
(declare-fun V7 () String )
(declare-fun V17 () String )
(declare-fun V16 () String )
(declare-fun V22 () String )
(declare-fun V11 () String )
(declare-fun V21 () String )
(declare-fun V30 () String )
(declare-fun V31 () String )
(declare-fun V18 () String )
(declare-fun V27 () String )
(declare-fun V6 () String )
(declare-fun V13 () String )
(declare-fun V24 () String )
(declare-fun V19 () String )
(declare-fun V9 () String )
(declare-fun V29 () String )
(declare-fun V28 () String )
(declare-fun V1 () String )
(declare-fun V20 () String )
(declare-fun V25 () String )
(assert (= (str.++ V11 V12 ) (str.++ V7 V8 ) ) )
(assert (= (str.++ V11 V12 ) (str.++ "//" V6 ) ) )
(assert (= (str.++ V11 V12 ) (str.++ (str.++ V20 "/" ) V21 ) ) )
(assert (= (str.++ V11 V12 ) (str.++ (str.++ V26 "?" ) V27 ) ) )
(assert (= (str.++ V11 V12 ) (str.++ (str.++ V15 V16 ) V17 ) ) )
(assert (= (str.++ V11 V12 ) (str.++ (str.++ (str.++ V9 V22 ) "/" ) V23 ) ) )
(assert (= (str.++ V11 V12 ) (str.++ (str.++ (str.++ V13 V28 ) "?" ) V29 ) ) )
(assert (= (str.++ (str.++ V22 "/" ) V23 ) (str.++ (str.++ V24 "/" ) V25 ) ) )
(assert (= (str.++ (str.++ V28 "?" ) V29 ) (str.++ (str.++ V30 "?" ) V31 ) ) )
(assert (= (str.++ (str.++ V18 ":" ) V19 ) (str.++ (str.++ V1 V11 ) V12 ) ) )
(assert (= (str.++ (str.++ V18 ":" ) V19 ) (str.++ "http" V5 ) ) )
( check-sat )
